solutions/Insertion/cheapest/E-n101-k8.txt
[[[53], [53, 28], [53, 27, 28], [53, 27, 69, 28], [53, 27, 1, 69, 28], [53, 27, 1, 50, 69, 28], [53, 27, 1, 76, 50, 69, 28], [53, 27, 1, 76, 77, 50, 69, 28], [53, 27, 1, 76, 77, 3, 50, 69, 28], [53, 27, 1, 76, 77, 79, 3, 50, 69, 28], [53, 27, 1, 76, 77, 79, 3, 33, 50, 69, 28], [53, 27, 1, 76, 77, 79, 3, 81, 33, 50, 69, 28], [53, 27, 1, 76, 77, 79, 3, 81, 9, 33, 50, 69, 28], [53, 27, 1, 76, 77, 79, 3, 81, 9, 33, 50, 69, 28]], [[89], [89, 6], [89, 6, 94], [89, 6, 94, 96], [89, 6, 94, 95, 96], [89, 6, 94, 95, 59, 96], [89, 6, 94, 95, 59, 99, 96], [89, 6, 94, 95, 92, 59, 99, 96], [89, 6, 94, 95, 97, 92, 59, 99, 96], [89, 6, 94, 95, 97, 92, 98, 59, 99, 96], [89, 6, 94, 95, 97, 92, 37, 98, 59, 99, 96], [89, 6, 94, 95, 97, 92, 37, 100, 98, 59, 99, 96], [89, 6, 94, 95, 97, 92, 37, 100, 98, 93, 59, 99, 96], [89, 6, 94, 95, 97, 92, 37, 100, 98, 93, 59, 99, 96]], [[58], [58, 40], [58, 40, 13], [58, 40, 13, 2], [58, 40, 13, 87, 2], [58, 40, 13, 87, 57, 2], [58, 40, 13, 87, 57, 42, 2], [58, 40, 13, 87, 57, 15, 42, 2], [58, 40, 13, 87, 57, 15, 43, 42, 2], [58, 40, 13, 87, 57, 15, 43, 14, 42, 2], [58, 40, 13, 87, 57, 15, 43, 14, 44, 42, 2], [58, 40, 13, 87, 57, 15, 43, 14, 44, 91, 42, 2], [58, 40, 13, 87, 57, 15, 43, 14, 44, 16, 91, 42, 2], [58, 40, 13, 87, 57, 15, 43, 14, 44, 16, 91, 42, 2]], [[26], [26, 12], [26, 12, 80], [26, 12, 68, 80], [26, 12, 68, 80, 54], [26, 12, 68, 29, 80, 54], [26, 12, 68, 24, 29, 80, 54], [26, 12, 68, 24, 29, 80, 54, 4], [26, 12, 68, 24, 29, 80, 54, 55, 4], [26, 12, 68, 24, 29, 80, 54, 55, 25, 4], [26, 12, 68, 24, 29, 80, 54, 55, 25, 39, 4], [26, 12, 68, 24, 29, 80, 54, 55, 25, 39, 56, 4], [26, 12, 68, 24, 29, 80, 54, 55, 25, 39, 56, 75, 4], [26, 12, 68, 24, 29, 80, 54, 55, 25, 39, 56, 75, 4]], [[52], [52, 18], [52, 18, 7], [52, 18, 7, 88], [52, 18, 7, 88, 31], [52, 18, 82, 7, 88, 31], [52, 18, 82, 48, 7, 88, 31], [52, 18, 82, 48, 19, 7, 88, 31], [52, 18, 82, 48, 47, 19, 7, 88, 31], [52, 18, 82, 48, 47, 36, 19, 7, 88, 31], [52, 18, 82, 48, 47, 36, 19, 62, 7, 88, 31], [52, 18, 82, 48, 47, 36, 19, 11, 62, 7, 88, 31], [52, 18, 82, 48, 47, 36, 19, 11, 62, 7, 88, 31]], [[21], [21, 73], [21, 73, 72], [21, 73, 72, 74], [21, 73, 72, 74, 22], [21, 73, 72, 74, 22, 41], [21, 73, 72, 74, 22, 41, 23], [21, 73, 72, 74, 22, 41, 23, 67], [21, 73, 72, 74, 22, 41, 23, 67, 60], [21, 73, 72, 74, 22, 41, 23, 67, 60, 5], [21, 73, 72, 74, 22, 41, 23, 67, 60, 5, 84], [21, 73, 72, 74, 22, 41, 23, 67, 60, 5, 84, 83], [21, 73, 72, 74, 22, 41, 23, 67, 60, 5, 84, 83, 8], [21, 73, 72, 74, 22, 41, 23, 67, 60, 5, 84, 83, 8]], [[70], [70, 30], [70, 30, 10], [70, 30, 10, 90], [70, 30, 10, 90, 32], [70, 30, 10, 90, 32, 20], [70, 30, 10, 90, 32, 20, 51], [70, 30, 10, 90, 32, 20, 51, 66], [70, 30, 10, 90, 32, 20, 51, 71, 66], [70, 30, 10, 90, 32, 20, 51, 71, 35, 66], [70, 30, 10, 90, 32, 20, 51, 71, 35, 65, 66], [70, 30, 10, 63, 90, 32, 20, 51, 71, 35, 65, 66], [70, 30, 10, 63, 90, 32, 20, 51, 71, 34, 35, 65, 66], [70, 30, 10, 63, 90, 32, 20, 51, 71, 78, 34, 35, 65, 66], [70, 30, 10, 64, 63, 90, 32, 20, 51, 71, 78, 34, 35, 65, 66], [70, 30, 10, 64, 63, 90, 32, 20, 51, 71, 78, 34, 35, 65, 66]], [[85], [85, 61], [85, 61, 86], [85, 61, 86, 17], [85, 61, 86, 17, 45], [85, 61, 86, 17, 45, 46], [85, 61, 86, 17, 45, 49, 46], [85, 61, 38, 86, 17, 45, 49, 46], [85, 61, 38, 86, 17, 45, 49, 46]]]