solutions/Insertion/cheapest/E-n101-k8.sol
Route #1: 53 27 1 76 77 79 3 81 9 33 50 69 28
Route #2: 89 6 94 95 97 92 37 100 98 93 59 99 96
Route #3: 58 40 13 87 57 15 43 14 44 16 91 42 2
Route #4: 26 12 68 24 29 80 54 55 25 39 56 75 4
Route #5: 52 18 82 48 47 36 19 11 62 7 88 31
Route #6: 21 73 72 74 22 41 23 67 60 5 84 83 8
Route #7: 70 30 10 64 63 90 32 20 51 71 78 34 35 65 66
Route #8: 85 61 38 86 17 45 49 46
cost: 1065
